(declare-const v Int)
(declare-const |v'| Int)
(declare-const term_to_project_onto Real)
(assert (and (<= (- v) 0) (<= (+ v -9) 0) (= (+ |v'| (- v) -1) 0)
               (= term_to_project_onto (+ |v'| (- v)))))
(check-sat)
